networks/zoo_14_9/zoo_14_9-lower.txt
Number of groups: 3
Flow 1: {1 2 0} {2 3 0} {3 5 0} {5 12 0} 
Flow 2: {1 4 0} {4 7 0} {7 6 0} {6 13 0} 
Flow 4: {5 6 0} Flow 5: {6 5 0} Flow 8: {6 7 0} {7 14 0} 
Time taken running everything: 0 seconds
