networks/zoo_14_9/zoo_14_9-lower.sol
<?xml version = "1.0" encoding="UTF-8" standalone="yes"?>
<CPLEXSolution version="1.2">
 <header
   problemName="networks/zoo_14_9/zoo_14_9-lower.lp"
   solutionName="incumbent"
   solutionIndex="-1"
   objectiveValue="4"
   solutionTypeValue="3"
   solutionTypeString="primal"
   solutionStatusValue="101"
   solutionStatusString="integer optimal solution"
   solutionMethodString="mip"
   primalFeasible="1"
   dualFeasible="1"
   MIPNodes="0"
   MIPIterations="4"
   writeLevel="3"/>
 <quality
   epInt="1.0000000000000001e-05"
   epRHS="9.9999999999999995e-07"
   maxIntInfeas="0"
   maxPrimalInfeas="0"
   maxX="1"
   maxSlack="1"/>
 <variables>
  <variable name="Y(1,5)" index="4" value="1"/>
  <variable name="Y(2,6)" index="15" value="1"/>
  <variable name="Y(8,7)" index="76" value="1"/>
  <variable name="Y(9,6)" index="85" value="1"/>
  <variable name="X(1,2,1)" index="90" value="1"/>
  <variable name="X(1,4,2)" index="100" value="1"/>
  <variable name="X(2,3,1)" index="108" value="1"/>
  <variable name="X(3,5,1)" index="117" value="1"/>
  <variable name="X(4,7,2)" index="127" value="1"/>
  <variable name="X(5,6,8)" index="142" value="1"/>
  <variable name="X(5,12,1)" index="144" value="1"/>
  <variable name="X(6,5,9)" index="161" value="1"/>
  <variable name="X(6,7,8)" index="169" value="1"/>
  <variable name="X(6,13,2)" index="172" value="1"/>
  <variable name="X(7,6,2)" index="181" value="1"/>
  <variable name="X(7,14,8)" index="196" value="1"/>
 </variables>
</CPLEXSolution>
